p cnf 54 40
c p distribution  0.875 0.125
c p distribution  0.875 0.125
c p distribution  0.875 0.125
c p distribution  0.875 0.125
c p distribution  0.875 0.125
c p distribution  0.875 0.125
c p distribution  0.875 0.125
c p distribution  0.875 0.125
c p distribution  0.875 0.125
c p distribution  0.875 0.125
c p distribution  0.875 0.125
c p distribution  0.875 0.125
c p distribution  0.875 0.125
c p distribution  0.875 0.125
c p distribution  0.875 0.125
c p distribution  0.875 0.125
c p distribution  0.875 0.125
c p distribution  0.875 0.125
c p distribution  0.875 0.125
52 0
-43 0
42 -49 -1 0
49 -42 -1 0
54 -43 -3 0
43 -54 -3 0
53 -40 -5 0
40 -53 -5 0
47 -50 -7 0
50 -47 -7 0
48 -47 -9 0
47 -48 -9 0
45 -46 -11 0
46 -45 -11 0
39 -48 -13 0
48 -39 -13 0
41 -40 -15 0
40 -41 -15 0
54 -47 -17 0
47 -54 -17 0
42 -39 -19 0
39 -42 -19 0
42 -39 -21 0
39 -42 -21 0
49 -53 -23 0
53 -49 -23 0
39 -51 -25 0
51 -39 -25 0
42 -52 -27 0
52 -42 -27 0
44 -49 -29 0
49 -44 -29 0
48 -40 -31 0
40 -48 -31 0
39 -45 -33 0
45 -39 -33 0
42 -44 -35 0
44 -42 -35 0
46 -53 -37 0
53 -46 -37 0
